!! Font Render
Xft.dpi:96
Xft.antialiasing:false
Xft.rgba:rgb
Xft.hinting:true
Xft.hintstyle:hintfull
Xft.lcdfilter:lcdfilter

*scrollstyle:plain
*scrollBar:false
*scrollTtyOutput:false
*scrollWithBuffer:true
*scrollTtyKeypress:false

*imLocale: en_US.UTF-8
URxvt*termName: rxvt-unicode-256color
URxvt*buffered: true
*intensityStyles: true

!! Extensions
!! install urxvt-perls
URxvt.perl-ext-common: default,matcher,url-select,keyboard-select,clipboard,vtwheel
!! url-select
URxvt.keysym.M-u: perl:url-select:select_next
URxvt.url-select.launcher: urxvt -e lynx -cfg=~/.lynx.cfg -lss=~/.lynx.lss
URxvt.url-select.underline: true
!! keyboard-select:
URxvt.keysym.M-Escape: perl:keyboard-select:activate
URxvt.keyboard-select.clipboard: true
! ^ Causes urxvt to crash when pasting on it something copied from it
!! Matcher
URxvt.url-launcher: /usr/bin/google-chrome-stable
URxvt.matcher.button: 1
!!clipboard with Alt
URxvt.iso14755: False
URxvt.keysym.M-c: perl:clipboard:copy
URxvt.keysym.M-v: perl:clipboard:paste

*underlineURLs:true
URxvt.font: xft:DejaVu Sans Mono for Powerline:pixelsize=12:style:bold,minspace=False
URxvt*boldFont: xft:DejaVu Sans Mono for Powerline:pixelsize=12:style:bold,minspace=False
URxvt.letterSpace: -1
URxvt.lineSpace: -1

URxvt.transparent:false
URxvt.shading:30
URxvt.geometry:190x48
URxvt.saveLines: 2000


!!! COLORS !!!

!! special
*foreground:           #ffffff
!! if not blur = [65]
!! for blur, use the following
URxvt*background:          [50]#000000
! Material Grey (disable blurRadius and transparent options)
!URxvt*background:   [100]#090909
!URxvt*background:   [100]#0e151b

!URxvt.borderColor: #00ccff
!URxvt.borderless:true
!URxvt.internalBorder:4

*.colorBD:              #ffffff
*colorIT:              #1c64ff
*colorUL:              #1c64ff
*underlineColor:       #00ccff
*highlightColor:       #00ccff
*highlightTextColor:   #000000

*cursorColor:          #00ccff
*cursorColor2:         #000000
*cursorBlink:          true
*cursorUnderline:      true
*depth:32

!*highlightColor: #00ccff
!*highlightTextColor: #000000


*bg:        #000000
*fg:        #ffffff
*color0:    #000000
*color1:    #1c64ff
*color2:    #00ccff
*color3:    #05e7c8
*color4:    #0066ff
*color5:    #0066ff
*color6:    #00ccff
*color7:    #ffffff
*color8:    #ff00cc
! terminal writing and grep matches
*color9:    #4177ff
*color10:   #00cfff
*color10:   #00ccff
*color11:   #00cfff
*color12:   #059bff
*color13:   #00ccff
*color14:   #00828b
*color14:   #1c64ff
*color15:   #00ccff
!*color15:  #0099ff

! ST
*background:    #000000
*alpha:         0.5


! Xterm
XTerm*renderFont: true
XTerm*faceName: xft:UbuntuMono Nerd Font
XTerm*faceSize: 11
XTerm*utf8: 2
XTerm*locale: true

XTerm.vt100.translations: #override \n\
  Ctrl <Key> j: smaller-vt-font() \n\
  Ctrl <Key> k: larger-vt-font()

!! Every shell is a login shell by default (for inclusion of all necessary environment variables)
XTerm*loginshell: true

!! I like a LOT of scrollback...
XTerm*savelines: 16384

!! double-click to select whole URLs :D
XTerm*charClass: 33:48,36-47:48,58-59:48,61:48,63-64:48,95:48,126:48

UXTerm*foreground: #c0c5ce
UXTerm*background: #000000
UXTerm*cursorColor: #c0c5ce

XTerm*foreground: #c0c5ce
XTerm*background: #000000
XTerm*cursorColor: #c0c5ce
